NAME : portcgen-18-21
COMMENT : portcgen N=18, seed=21
TYPE : TSP
DIMENSION : 18
EDGE_WEIGHT_TYPE : EUC_2D
NODE_COORD_SECTION
1 -159289 116381
2 -159124 225137
3 36274 215482
4 11889 158463
5 68847 -81139
6 -264534 355125
7 157507 -56719
8 -154789 160295
9 -61335 52913
10 164421 298308
11 167114 -497419
12 98257 -73479
13 209157 -585082
14 286994 -162730
15 632571 316946
16 374842 -127953
17 352845 22271
18 -367537 -83979
